water_flow/区画計算/whity 区画　計算/2チーム　流入開始50分/whity2_before50/whity_2team.sol
# Solution for model Objective
# Objective value = 0
d(1,a) 0
d(1,b) 0
d(2,a) 0
d(2,b) 0
d(3,a) 0
d(3,b) 0
d(4,a) 0
d(4,b) 0
d(5,a) 0
d(5,b) 0
d(6,a) 0
d(6,b) 0
x(15728,0,a) 1
x(15728,0,b) 1
x(1813,1,a) 0
x(1813,1,b) 0
x(1813,2,a) 0
x(1813,2,b) 0
x(1813,3,a) 0
x(1813,3,b) 1
x(1813,4,a) 0
x(1813,4,b) 0
x(1813,5,a) 0
x(1813,5,b) 0
x(1813,6,a) 0
x(1813,6,b) 0
x(1592,1,a) 0
x(1592,1,b) 0
x(1592,2,a) 0
x(1592,2,b) 0
x(1592,3,a) 0
x(1592,3,b) 0
x(1592,4,a) 0
x(1592,4,b) 0
x(1592,5,a) 0
x(1592,5,b) 0
x(1592,6,a) 1
x(1592,6,b) 0
x(6205,1,a) 0
x(6205,1,b) 1
x(6205,2,a) 0
x(6205,2,b) 0
x(6205,3,a) 0
x(6205,3,b) 0
x(6205,4,a) 0
x(6205,4,b) 0
x(6205,5,a) 0
x(6205,5,b) 0
x(6205,6,a) 0
x(6205,6,b) 0
x(6686,1,a) 0
x(6686,1,b) 0
x(6686,2,a) 0
x(6686,2,b) 0
x(6686,3,a) 1
x(6686,3,b) 0
x(6686,4,a) 0
x(6686,4,b) 0
x(6686,5,a) 0
x(6686,5,b) 0
x(6686,6,a) 0
x(6686,6,b) 0
x(8236,1,a) 0
x(8236,1,b) 0
x(8236,2,a) 0
x(8236,2,b) 0
x(8236,3,a) 0
x(8236,3,b) 0
x(8236,4,a) 1
x(8236,4,b) 0
x(8236,5,a) 0
x(8236,5,b) 0
x(8236,6,a) 0
x(8236,6,b) 0
x(8169,1,a) 0
x(8169,1,b) 0
x(8169,2,a) 0
x(8169,2,b) 0
x(8169,3,a) 0
x(8169,3,b) 0
x(8169,4,a) 0
x(8169,4,b) 0
x(8169,5,a) 1
x(8169,5,b) 0
x(8169,6,a) 0
x(8169,6,b) 0
x(8643,1,a) 0
x(8643,1,b) 0
x(8643,2,a) 1
x(8643,2,b) 0
x(8643,3,a) 0
x(8643,3,b) 0
x(8643,4,a) 0
x(8643,4,b) 0
x(8643,5,a) 0
x(8643,5,b) 0
x(8643,6,a) 0
x(8643,6,b) 0
x(10635,1,a) 0
x(10635,1,b) 0
x(10635,2,a) 0
x(10635,2,b) 0
x(10635,3,a) 0
x(10635,3,b) 0
x(10635,4,a) 0
x(10635,4,b) 0
x(10635,5,a) 0
x(10635,5,b) 1
x(10635,6,a) 0
x(10635,6,b) 0
x(14140,1,a) 0
x(14140,1,b) 0
x(14140,2,a) 0
x(14140,2,b) 1
x(14140,3,a) 0
x(14140,3,b) 0
x(14140,4,a) 0
x(14140,4,b) 0
x(14140,5,a) 0
x(14140,5,b) 0
x(14140,6,a) 0
x(14140,6,b) 0
x(11087,1,a) 0
x(11087,1,b) 0
x(11087,2,a) 0
x(11087,2,b) 0
x(11087,3,a) 0
x(11087,3,b) 0
x(11087,4,a) 0
x(11087,4,b) 1
x(11087,5,a) 0
x(11087,5,b) 0
x(11087,6,a) 0
x(11087,6,b) 0
x(15728,1,a) 1
x(15728,1,b) 0
x(15728,2,a) 0
x(15728,2,b) 0
x(15728,3,a) 0
x(15728,3,b) 0
x(15728,4,a) 0
x(15728,4,b) 0
x(15728,5,a) 0
x(15728,5,b) 0
x(15728,6,a) 0
x(15728,6,b) 0
x(1813,0,a) 0
x(1592,0,a) 0
x(6205,0,a) 0
x(6686,0,a) 0
x(8236,0,a) 0
x(8169,0,a) 0
x(8643,0,a) 0
x(10635,0,a) 0
x(14140,0,a) 0
x(11087,0,a) 0
x(1813,0,b) 0
x(1592,0,b) 0
x(6205,0,b) 0
x(6686,0,b) 0
x(8236,0,b) 0
x(8169,0,b) 0
x(8643,0,b) 0
x(10635,0,b) 0
x(14140,0,b) 0
x(11087,0,b) 0
y(1813,1813,0,a) 0
y(1813,1813,0,b) 0
y(1813,1813,1,a) 0
y(1813,1813,1,b) 0
y(1813,1813,2,a) 0
y(1813,1813,2,b) 0
y(1813,1813,3,a) 0
y(1813,1813,3,b) 0
y(1813,1813,4,a) 0
y(1813,1813,4,b) 0
y(1813,1813,5,a) 0
y(1813,1813,5,b) 0
y(1592,1813,0,a) 0
y(1592,1813,0,b) 0
y(1592,1813,1,a) 0
y(1592,1813,1,b) 0
y(1592,1813,2,a) 0
y(1592,1813,2,b) 0
y(1592,1813,3,a) 0
y(1592,1813,3,b) 0
y(1592,1813,4,a) 0
y(1592,1813,4,b) 0
y(1592,1813,5,a) 0
y(1592,1813,5,b) 0
y(6205,1813,0,a) 0
y(6205,1813,0,b) 0
y(6205,1813,1,a) 0
y(6205,1813,1,b) 0
y(6205,1813,2,a) 0
y(6205,1813,2,b) 0
y(6205,1813,3,a) 0
y(6205,1813,3,b) 0
y(6205,1813,4,a) 0
y(6205,1813,4,b) 0
y(6205,1813,5,a) 0
y(6205,1813,5,b) 0
y(6686,1813,0,a) 0
y(6686,1813,0,b) 0
y(6686,1813,1,a) 0
y(6686,1813,1,b) 0
y(6686,1813,2,a) 0
y(6686,1813,2,b) 0
y(6686,1813,3,a) 0
y(6686,1813,3,b) 0
y(6686,1813,4,a) 0
y(6686,1813,4,b) 0
y(6686,1813,5,a) 0
y(6686,1813,5,b) 0
y(8236,1813,0,a) 0
y(8236,1813,0,b) 0
y(8236,1813,1,a) 0
y(8236,1813,1,b) 0
y(8236,1813,2,a) 0
y(8236,1813,2,b) 0
y(8236,1813,3,a) 0
y(8236,1813,3,b) 0
y(8236,1813,4,a) 0
y(8236,1813,4,b) 0
y(8236,1813,5,a) 0
y(8236,1813,5,b) 0
y(8169,1813,0,a) 0
y(8169,1813,0,b) 0
y(8169,1813,1,a) 0
y(8169,1813,1,b) 0
y(8169,1813,2,a) 0
y(8169,1813,2,b) 0
y(8169,1813,3,a) 0
y(8169,1813,3,b) 0
y(8169,1813,4,a) 0
y(8169,1813,4,b) 0
y(8169,1813,5,a) 0
y(8169,1813,5,b) 0
y(8643,1813,0,a) 0
y(8643,1813,0,b) 0
y(8643,1813,1,a) 0
y(8643,1813,1,b) 0
y(8643,1813,2,a) 0
y(8643,1813,2,b) 0
y(8643,1813,3,a) 0
y(8643,1813,3,b) 0
y(8643,1813,4,a) 0
y(8643,1813,4,b) 0
y(8643,1813,5,a) 0
y(8643,1813,5,b) 0
y(10635,1813,0,a) 0
y(10635,1813,0,b) 0
y(10635,1813,1,a) 0
y(10635,1813,1,b) 0
y(10635,1813,2,a) 0
y(10635,1813,2,b) 0
y(10635,1813,3,a) 0
y(10635,1813,3,b) 0
y(10635,1813,4,a) 0
y(10635,1813,4,b) 0
y(10635,1813,5,a) 0
y(10635,1813,5,b) 0
y(14140,1813,0,a) 0
y(14140,1813,0,b) 0
y(14140,1813,1,a) 0
y(14140,1813,1,b) 0
y(14140,1813,2,a) 0
y(14140,1813,2,b) 1
y(14140,1813,3,a) 0
y(14140,1813,3,b) 0
y(14140,1813,4,a) 0
y(14140,1813,4,b) 0
y(14140,1813,5,a) 0
y(14140,1813,5,b) 0
y(11087,1813,0,a) 0
y(11087,1813,0,b) 0
y(11087,1813,1,a) 0
y(11087,1813,1,b) 0
y(11087,1813,2,a) 0
y(11087,1813,2,b) 0
y(11087,1813,3,a) 0
y(11087,1813,3,b) 0
y(11087,1813,4,a) 0
y(11087,1813,4,b) 0
y(11087,1813,5,a) 0
y(11087,1813,5,b) 0
y(15728,1813,0,a) 0
y(15728,1813,0,b) 0
y(15728,1813,1,a) 0
y(15728,1813,1,b) 0
y(15728,1813,2,a) 0
y(15728,1813,2,b) 0
y(15728,1813,3,a) 0
y(15728,1813,3,b) 0
y(15728,1813,4,a) 0
y(15728,1813,4,b) 0
y(15728,1813,5,a) 0
y(15728,1813,5,b) 0
y(1592,1592,0,a) 0
y(1592,1592,0,b) 0
y(1592,1592,1,a) 0
y(1592,1592,1,b) 0
y(1592,1592,2,a) 0
y(1592,1592,2,b) 0
y(1592,1592,3,a) 0
y(1592,1592,3,b) 0
y(1592,1592,4,a) 0
y(1592,1592,4,b) 0
y(1592,1592,5,a) 0
y(1592,1592,5,b) 0
y(1813,1592,0,a) 0
y(1813,1592,0,b) 0
y(1813,1592,1,a) 0
y(1813,1592,1,b) 0
y(1813,1592,2,a) 0
y(1813,1592,2,b) 0
y(1813,1592,3,a) 0
y(1813,1592,3,b) 0
y(1813,1592,4,a) 0
y(1813,1592,4,b) 0
y(1813,1592,5,a) 0
y(1813,1592,5,b) 0
y(6205,1592,0,a) 0
y(6205,1592,0,b) 0
y(6205,1592,1,a) 0
y(6205,1592,1,b) 0
y(6205,1592,2,a) 0
y(6205,1592,2,b) 0
y(6205,1592,3,a) 0
y(6205,1592,3,b) 0
y(6205,1592,4,a) 0
y(6205,1592,4,b) 0
y(6205,1592,5,a) 0
y(6205,1592,5,b) 0
y(6686,1592,0,a) 0
y(6686,1592,0,b) 0
y(6686,1592,1,a) 0
y(6686,1592,1,b) 0
y(6686,1592,2,a) 0
y(6686,1592,2,b) 0
y(6686,1592,3,a) 0
y(6686,1592,3,b) 0
y(6686,1592,4,a) 0
y(6686,1592,4,b) 0
y(6686,1592,5,a) 0
y(6686,1592,5,b) 0
y(8236,1592,0,a) 0
y(8236,1592,0,b) 0
y(8236,1592,1,a) 0
y(8236,1592,1,b) 0
y(8236,1592,2,a) 0
y(8236,1592,2,b) 0
y(8236,1592,3,a) 0
y(8236,1592,3,b) 0
y(8236,1592,4,a) 0
y(8236,1592,4,b) 0
y(8236,1592,5,a) 0
y(8236,1592,5,b) 0
y(8169,1592,0,a) 0
y(8169,1592,0,b) 0
y(8169,1592,1,a) 0
y(8169,1592,1,b) 0
y(8169,1592,2,a) 0
y(8169,1592,2,b) 0
y(8169,1592,3,a) 0
y(8169,1592,3,b) 0
y(8169,1592,4,a) 0
y(8169,1592,4,b) 0
y(8169,1592,5,a) 1
y(8169,1592,5,b) 0
y(8643,1592,0,a) 0
y(8643,1592,0,b) 0
y(8643,1592,1,a) 0
y(8643,1592,1,b) 0
y(8643,1592,2,a) 0
y(8643,1592,2,b) 0
y(8643,1592,3,a) 0
y(8643,1592,3,b) 0
y(8643,1592,4,a) 0
y(8643,1592,4,b) 0
y(8643,1592,5,a) 0
y(8643,1592,5,b) 0
y(10635,1592,0,a) 0
y(10635,1592,0,b) 0
y(10635,1592,1,a) 0
y(10635,1592,1,b) 0
y(10635,1592,2,a) 0
y(10635,1592,2,b) 0
y(10635,1592,3,a) 0
y(10635,1592,3,b) 0
y(10635,1592,4,a) 0
y(10635,1592,4,b) 0
y(10635,1592,5,a) 0
y(10635,1592,5,b) 0
y(14140,1592,0,a) 0
y(14140,1592,0,b) 0
y(14140,1592,1,a) 0
y(14140,1592,1,b) 0
y(14140,1592,2,a) 0
y(14140,1592,2,b) 0
y(14140,1592,3,a) 0
y(14140,1592,3,b) 0
y(14140,1592,4,a) 0
y(14140,1592,4,b) 0
y(14140,1592,5,a) 0
y(14140,1592,5,b) 0
y(11087,1592,0,a) 0
y(11087,1592,0,b) 0
y(11087,1592,1,a) 0
y(11087,1592,1,b) 0
y(11087,1592,2,a) 0
y(11087,1592,2,b) 0
y(11087,1592,3,a) 0
y(11087,1592,3,b) 0
y(11087,1592,4,a) 0
y(11087,1592,4,b) 0
y(11087,1592,5,a) 0
y(11087,1592,5,b) 0
y(15728,1592,0,a) 0
y(15728,1592,0,b) 0
y(15728,1592,1,a) 0
y(15728,1592,1,b) 0
y(15728,1592,2,a) 0
y(15728,1592,2,b) 0
y(15728,1592,3,a) 0
y(15728,1592,3,b) 0
y(15728,1592,4,a) 0
y(15728,1592,4,b) 0
y(15728,1592,5,a) 0
y(15728,1592,5,b) 0
y(6205,6205,0,a) 0
y(6205,6205,0,b) 0
y(6205,6205,1,a) 0
y(6205,6205,1,b) 0
y(6205,6205,2,a) 0
y(6205,6205,2,b) 0
y(6205,6205,3,a) 0
y(6205,6205,3,b) 0
y(6205,6205,4,a) 0
y(6205,6205,4,b) 0
y(6205,6205,5,a) 0
y(6205,6205,5,b) 0
y(1813,6205,0,a) 0
y(1813,6205,0,b) 0
y(1813,6205,1,a) 0
y(1813,6205,1,b) 0
y(1813,6205,2,a) 0
y(1813,6205,2,b) 0
y(1813,6205,3,a) 0
y(1813,6205,3,b) 0
y(1813,6205,4,a) 0
y(1813,6205,4,b) 0
y(1813,6205,5,a) 0
y(1813,6205,5,b) 0
y(1592,6205,0,a) 0
y(1592,6205,0,b) 0
y(1592,6205,1,a) 0
y(1592,6205,1,b) 0
y(1592,6205,2,a) 0
y(1592,6205,2,b) 0
y(1592,6205,3,a) 0
y(1592,6205,3,b) 0
y(1592,6205,4,a) 0
y(1592,6205,4,b) 0
y(1592,6205,5,a) 0
y(1592,6205,5,b) 0
y(6686,6205,0,a) 0
y(6686,6205,0,b) 0
y(6686,6205,1,a) 0
y(6686,6205,1,b) 0
y(6686,6205,2,a) 0
y(6686,6205,2,b) 0
y(6686,6205,3,a) 0
y(6686,6205,3,b) 0
y(6686,6205,4,a) 0
y(6686,6205,4,b) 0
y(6686,6205,5,a) 0
y(6686,6205,5,b) 0
y(8236,6205,0,a) 0
y(8236,6205,0,b) 0
y(8236,6205,1,a) 0
y(8236,6205,1,b) 0
y(8236,6205,2,a) 0
y(8236,6205,2,b) 0
y(8236,6205,3,a) 0
y(8236,6205,3,b) 0
y(8236,6205,4,a) 0
y(8236,6205,4,b) 0
y(8236,6205,5,a) 0
y(8236,6205,5,b) 0
y(8169,6205,0,a) 0
y(8169,6205,0,b) 0
y(8169,6205,1,a) 0
y(8169,6205,1,b) 0
y(8169,6205,2,a) 0
y(8169,6205,2,b) 0
y(8169,6205,3,a) 0
y(8169,6205,3,b) 0
y(8169,6205,4,a) 0
y(8169,6205,4,b) 0
y(8169,6205,5,a) 0
y(8169,6205,5,b) 0
y(8643,6205,0,a) 0
y(8643,6205,0,b) 0
y(8643,6205,1,a) 0
y(8643,6205,1,b) 0
y(8643,6205,2,a) 0
y(8643,6205,2,b) 0
y(8643,6205,3,a) 0
y(8643,6205,3,b) 0
y(8643,6205,4,a) 0
y(8643,6205,4,b) 0
y(8643,6205,5,a) 0
y(8643,6205,5,b) 0
y(10635,6205,0,a) 0
y(10635,6205,0,b) 0
y(10635,6205,1,a) 0
y(10635,6205,1,b) 0
y(10635,6205,2,a) 0
y(10635,6205,2,b) 0
y(10635,6205,3,a) 0
y(10635,6205,3,b) 0
y(10635,6205,4,a) 0
y(10635,6205,4,b) 0
y(10635,6205,5,a) 0
y(10635,6205,5,b) 0
y(14140,6205,0,a) 0
y(14140,6205,0,b) 0
y(14140,6205,1,a) 0
y(14140,6205,1,b) 0
y(14140,6205,2,a) 0
y(14140,6205,2,b) 0
y(14140,6205,3,a) 0
y(14140,6205,3,b) 0
y(14140,6205,4,a) 0
y(14140,6205,4,b) 0
y(14140,6205,5,a) 0
y(14140,6205,5,b) 0
y(11087,6205,0,a) 0
y(11087,6205,0,b) 0
y(11087,6205,1,a) 0
y(11087,6205,1,b) 0
y(11087,6205,2,a) 0
y(11087,6205,2,b) 0
y(11087,6205,3,a) 0
y(11087,6205,3,b) 0
y(11087,6205,4,a) 0
y(11087,6205,4,b) 0
y(11087,6205,5,a) 0
y(11087,6205,5,b) 0
y(15728,6205,0,a) 0
y(15728,6205,0,b) 1
y(15728,6205,1,a) 0
y(15728,6205,1,b) 0
y(15728,6205,2,a) 0
y(15728,6205,2,b) 0
y(15728,6205,3,a) 0
y(15728,6205,3,b) 0
y(15728,6205,4,a) 0
y(15728,6205,4,b) 0
y(15728,6205,5,a) 0
y(15728,6205,5,b) 0
y(6686,6686,0,a) 0
y(6686,6686,0,b) 0
y(6686,6686,1,a) 0
y(6686,6686,1,b) 0
y(6686,6686,2,a) 0
y(6686,6686,2,b) 0
y(6686,6686,3,a) 0
y(6686,6686,3,b) 0
y(6686,6686,4,a) 0
y(6686,6686,4,b) 0
y(6686,6686,5,a) 0
y(6686,6686,5,b) 0
y(1813,6686,0,a) 0
y(1813,6686,0,b) 0
y(1813,6686,1,a) 0
y(1813,6686,1,b) 0
y(1813,6686,2,a) 0
y(1813,6686,2,b) 0
y(1813,6686,3,a) 0
y(1813,6686,3,b) 0
y(1813,6686,4,a) 0
y(1813,6686,4,b) 0
y(1813,6686,5,a) 0
y(1813,6686,5,b) 0
y(1592,6686,0,a) 0
y(1592,6686,0,b) 0
y(1592,6686,1,a) 0
y(1592,6686,1,b) 0
y(1592,6686,2,a) 0
y(1592,6686,2,b) 0
y(1592,6686,3,a) 0
y(1592,6686,3,b) 0
y(1592,6686,4,a) 0
y(1592,6686,4,b) 0
y(1592,6686,5,a) 0
y(1592,6686,5,b) 0
y(6205,6686,0,a) 0
y(6205,6686,0,b) 0
y(6205,6686,1,a) 0
y(6205,6686,1,b) 0
y(6205,6686,2,a) 0
y(6205,6686,2,b) 0
y(6205,6686,3,a) 0
y(6205,6686,3,b) 0
y(6205,6686,4,a) 0
y(6205,6686,4,b) 0
y(6205,6686,5,a) 0
y(6205,6686,5,b) 0
y(8236,6686,0,a) 0
y(8236,6686,0,b) 0
y(8236,6686,1,a) 0
y(8236,6686,1,b) 0
y(8236,6686,2,a) 0
y(8236,6686,2,b) 0
y(8236,6686,3,a) 0
y(8236,6686,3,b) 0
y(8236,6686,4,a) 0
y(8236,6686,4,b) 0
y(8236,6686,5,a) 0
y(8236,6686,5,b) 0
y(8169,6686,0,a) 0
y(8169,6686,0,b) 0
y(8169,6686,1,a) 0
y(8169,6686,1,b) 0
y(8169,6686,2,a) 0
y(8169,6686,2,b) 0
y(8169,6686,3,a) 0
y(8169,6686,3,b) 0
y(8169,6686,4,a) 0
y(8169,6686,4,b) 0
y(8169,6686,5,a) 0
y(8169,6686,5,b) 0
y(8643,6686,0,a) 0
y(8643,6686,0,b) 0
y(8643,6686,1,a) 0
y(8643,6686,1,b) 0
y(8643,6686,2,a) 1
y(8643,6686,2,b) 0
y(8643,6686,3,a) 0
y(8643,6686,3,b) 0
y(8643,6686,4,a) 0
y(8643,6686,4,b) 0
y(8643,6686,5,a) 0
y(8643,6686,5,b) 0
y(10635,6686,0,a) 0
y(10635,6686,0,b) 0
y(10635,6686,1,a) 0
y(10635,6686,1,b) 0
y(10635,6686,2,a) 0
y(10635,6686,2,b) 0
y(10635,6686,3,a) 0
y(10635,6686,3,b) 0
y(10635,6686,4,a) 0
y(10635,6686,4,b) 0
y(10635,6686,5,a) 0
y(10635,6686,5,b) 0
y(14140,6686,0,a) 0
y(14140,6686,0,b) 0
y(14140,6686,1,a) 0
y(14140,6686,1,b) 0
y(14140,6686,2,a) 0
y(14140,6686,2,b) 0
y(14140,6686,3,a) 0
y(14140,6686,3,b) 0
y(14140,6686,4,a) 0
y(14140,6686,4,b) 0
y(14140,6686,5,a) 0
y(14140,6686,5,b) 0
y(11087,6686,0,a) 0
y(11087,6686,0,b) 0
y(11087,6686,1,a) 0
y(11087,6686,1,b) 0
y(11087,6686,2,a) 0
y(11087,6686,2,b) 0
y(11087,6686,3,a) 0
y(11087,6686,3,b) 0
y(11087,6686,4,a) 0
y(11087,6686,4,b) 0
y(11087,6686,5,a) 0
y(11087,6686,5,b) 0
y(15728,6686,0,a) 0
y(15728,6686,0,b) 0
y(15728,6686,1,a) 0
y(15728,6686,1,b) 0
y(15728,6686,2,a) 0
y(15728,6686,2,b) 0
y(15728,6686,3,a) 0
y(15728,6686,3,b) 0
y(15728,6686,4,a) 0
y(15728,6686,4,b) 0
y(15728,6686,5,a) 0
y(15728,6686,5,b) 0
y(8236,8236,0,a) 0
y(8236,8236,0,b) 0
y(8236,8236,1,a) 0
y(8236,8236,1,b) 0
y(8236,8236,2,a) 0
y(8236,8236,2,b) 0
y(8236,8236,3,a) 0
y(8236,8236,3,b) 0
y(8236,8236,4,a) 0
y(8236,8236,4,b) 0
y(8236,8236,5,a) 0
y(8236,8236,5,b) 0
y(1813,8236,0,a) 0
y(1813,8236,0,b) 0
y(1813,8236,1,a) 0
y(1813,8236,1,b) 0
y(1813,8236,2,a) 0
y(1813,8236,2,b) 0
y(1813,8236,3,a) 0
y(1813,8236,3,b) 0
y(1813,8236,4,a) 0
y(1813,8236,4,b) 0
y(1813,8236,5,a) 0
y(1813,8236,5,b) 0
y(1592,8236,0,a) 0
y(1592,8236,0,b) 0
y(1592,8236,1,a) 0
y(1592,8236,1,b) 0
y(1592,8236,2,a) 0
y(1592,8236,2,b) 0
y(1592,8236,3,a) 0
y(1592,8236,3,b) 0
y(1592,8236,4,a) 0
y(1592,8236,4,b) 0
y(1592,8236,5,a) 0
y(1592,8236,5,b) 0
y(6205,8236,0,a) 0
y(6205,8236,0,b) 0
y(6205,8236,1,a) 0
y(6205,8236,1,b) 0
y(6205,8236,2,a) 0
y(6205,8236,2,b) 0
y(6205,8236,3,a) 0
y(6205,8236,3,b) 0
y(6205,8236,4,a) 0
y(6205,8236,4,b) 0
y(6205,8236,5,a) 0
y(6205,8236,5,b) 0
y(6686,8236,0,a) 0
y(6686,8236,0,b) 0
y(6686,8236,1,a) 0
y(6686,8236,1,b) 0
y(6686,8236,2,a) 0
y(6686,8236,2,b) 0
y(6686,8236,3,a) 1
y(6686,8236,3,b) 0
y(6686,8236,4,a) 0
y(6686,8236,4,b) 0
y(6686,8236,5,a) 0
y(6686,8236,5,b) 0
y(8169,8236,0,a) 0
y(8169,8236,0,b) 0
y(8169,8236,1,a) 0
y(8169,8236,1,b) 0
y(8169,8236,2,a) 0
y(8169,8236,2,b) 0
y(8169,8236,3,a) 0
y(8169,8236,3,b) 0
y(8169,8236,4,a) 0
y(8169,8236,4,b) 0
y(8169,8236,5,a) 0
y(8169,8236,5,b) 0
y(8643,8236,0,a) 0
y(8643,8236,0,b) 0
y(8643,8236,1,a) 0
y(8643,8236,1,b) 0
y(8643,8236,2,a) 0
y(8643,8236,2,b) 0
y(8643,8236,3,a) 0
y(8643,8236,3,b) 0
y(8643,8236,4,a) 0
y(8643,8236,4,b) 0
y(8643,8236,5,a) 0
y(8643,8236,5,b) 0
y(10635,8236,0,a) 0
y(10635,8236,0,b) 0
y(10635,8236,1,a) 0
y(10635,8236,1,b) 0
y(10635,8236,2,a) 0
y(10635,8236,2,b) 0
y(10635,8236,3,a) 0
y(10635,8236,3,b) 0
y(10635,8236,4,a) 0
y(10635,8236,4,b) 0
y(10635,8236,5,a) 0
y(10635,8236,5,b) 0
y(14140,8236,0,a) 0
y(14140,8236,0,b) 0
y(14140,8236,1,a) 0
y(14140,8236,1,b) 0
y(14140,8236,2,a) 0
y(14140,8236,2,b) 0
y(14140,8236,3,a) 0
y(14140,8236,3,b) 0
y(14140,8236,4,a) 0
y(14140,8236,4,b) 0
y(14140,8236,5,a) 0
y(14140,8236,5,b) 0
y(11087,8236,0,a) 0
y(11087,8236,0,b) 0
y(11087,8236,1,a) 0
y(11087,8236,1,b) 0
y(11087,8236,2,a) 0
y(11087,8236,2,b) 0
y(11087,8236,3,a) 0
y(11087,8236,3,b) 0
y(11087,8236,4,a) 0
y(11087,8236,4,b) 0
y(11087,8236,5,a) 0
y(11087,8236,5,b) 0
y(15728,8236,0,a) 0
y(15728,8236,0,b) 0
y(15728,8236,1,a) 0
y(15728,8236,1,b) 0
y(15728,8236,2,a) 0
y(15728,8236,2,b) 0
y(15728,8236,3,a) 0
y(15728,8236,3,b) 0
y(15728,8236,4,a) 0
y(15728,8236,4,b) 0
y(15728,8236,5,a) 0
y(15728,8236,5,b) 0
y(8169,8169,0,a) 0
y(8169,8169,0,b) 0
y(8169,8169,1,a) 0
y(8169,8169,1,b) 0
y(8169,8169,2,a) 0
y(8169,8169,2,b) 0
y(8169,8169,3,a) 0
y(8169,8169,3,b) 0
y(8169,8169,4,a) 0
y(8169,8169,4,b) 0
y(8169,8169,5,a) 0
y(8169,8169,5,b) 0
y(1813,8169,0,a) 0
y(1813,8169,0,b) 0
y(1813,8169,1,a) 0
y(1813,8169,1,b) 0
y(1813,8169,2,a) 0
y(1813,8169,2,b) 0
y(1813,8169,3,a) 0
y(1813,8169,3,b) 0
y(1813,8169,4,a) 0
y(1813,8169,4,b) 0
y(1813,8169,5,a) 0
y(1813,8169,5,b) 0
y(1592,8169,0,a) 0
y(1592,8169,0,b) 0
y(1592,8169,1,a) 0
y(1592,8169,1,b) 0
y(1592,8169,2,a) 0
y(1592,8169,2,b) 0
y(1592,8169,3,a) 0
y(1592,8169,3,b) 0
y(1592,8169,4,a) 0
y(1592,8169,4,b) 0
y(1592,8169,5,a) 0
y(1592,8169,5,b) 0
y(6205,8169,0,a) 0
y(6205,8169,0,b) 0
y(6205,8169,1,a) 0
y(6205,8169,1,b) 0
y(6205,8169,2,a) 0
y(6205,8169,2,b) 0
y(6205,8169,3,a) 0
y(6205,8169,3,b) 0
y(6205,8169,4,a) 0
y(6205,8169,4,b) 0
y(6205,8169,5,a) 0
y(6205,8169,5,b) 0
y(6686,8169,0,a) 0
y(6686,8169,0,b) 0
y(6686,8169,1,a) 0
y(6686,8169,1,b) 0
y(6686,8169,2,a) 0
y(6686,8169,2,b) 0
y(6686,8169,3,a) 0
y(6686,8169,3,b) 0
y(6686,8169,4,a) 0
y(6686,8169,4,b) 0
y(6686,8169,5,a) 0
y(6686,8169,5,b) 0
y(8236,8169,0,a) 0
y(8236,8169,0,b) 0
y(8236,8169,1,a) 0
y(8236,8169,1,b) 0
y(8236,8169,2,a) 0
y(8236,8169,2,b) 0
y(8236,8169,3,a) 0
y(8236,8169,3,b) 0
y(8236,8169,4,a) 1
y(8236,8169,4,b) 0
y(8236,8169,5,a) 0
y(8236,8169,5,b) 0
y(8643,8169,0,a) 0
y(8643,8169,0,b) 0
y(8643,8169,1,a) 0
y(8643,8169,1,b) 0
y(8643,8169,2,a) 0
y(8643,8169,2,b) 0
y(8643,8169,3,a) 0
y(8643,8169,3,b) 0
y(8643,8169,4,a) 0
y(8643,8169,4,b) 0
y(8643,8169,5,a) 0
y(8643,8169,5,b) 0
y(10635,8169,0,a) 0
y(10635,8169,0,b) 0
y(10635,8169,1,a) 0
y(10635,8169,1,b) 0
y(10635,8169,2,a) 0
y(10635,8169,2,b) 0
y(10635,8169,3,a) 0
y(10635,8169,3,b) 0
y(10635,8169,4,a) 0
y(10635,8169,4,b) 0
y(10635,8169,5,a) 0
y(10635,8169,5,b) 0
y(14140,8169,0,a) 0
y(14140,8169,0,b) 0
y(14140,8169,1,a) 0
y(14140,8169,1,b) 0
y(14140,8169,2,a) 0
y(14140,8169,2,b) 0
y(14140,8169,3,a) 0
y(14140,8169,3,b) 0
y(14140,8169,4,a) 0
y(14140,8169,4,b) 0
y(14140,8169,5,a) 0
y(14140,8169,5,b) 0
y(11087,8169,0,a) 0
y(11087,8169,0,b) 0
y(11087,8169,1,a) 0
y(11087,8169,1,b) 0
y(11087,8169,2,a) 0
y(11087,8169,2,b) 0
y(11087,8169,3,a) 0
y(11087,8169,3,b) 0
y(11087,8169,4,a) 0
y(11087,8169,4,b) 0
y(11087,8169,5,a) 0
y(11087,8169,5,b) 0
y(15728,8169,0,a) 0
y(15728,8169,0,b) 0
y(15728,8169,1,a) 0
y(15728,8169,1,b) 0
y(15728,8169,2,a) 0
y(15728,8169,2,b) 0
y(15728,8169,3,a) 0
y(15728,8169,3,b) 0
y(15728,8169,4,a) 0
y(15728,8169,4,b) 0
y(15728,8169,5,a) 0
y(15728,8169,5,b) 0
y(8643,8643,0,a) 0
y(8643,8643,0,b) 0
y(8643,8643,1,a) 0
y(8643,8643,1,b) 0
y(8643,8643,2,a) 0
y(8643,8643,2,b) 0
y(8643,8643,3,a) 0
y(8643,8643,3,b) 0
y(8643,8643,4,a) 0
y(8643,8643,4,b) 0
y(8643,8643,5,a) 0
y(8643,8643,5,b) 0
y(1813,8643,0,a) 0
y(1813,8643,0,b) 0
y(1813,8643,1,a) 0
y(1813,8643,1,b) 0
y(1813,8643,2,a) 0
y(1813,8643,2,b) 0
y(1813,8643,3,a) 0
y(1813,8643,3,b) 0
y(1813,8643,4,a) 0
y(1813,8643,4,b) 0
y(1813,8643,5,a) 0
y(1813,8643,5,b) 0
y(1592,8643,0,a) 0
y(1592,8643,0,b) 0
y(1592,8643,1,a) 0
y(1592,8643,1,b) 0
y(1592,8643,2,a) 0
y(1592,8643,2,b) 0
y(1592,8643,3,a) 0
y(1592,8643,3,b) 0
y(1592,8643,4,a) 0
y(1592,8643,4,b) 0
y(1592,8643,5,a) 0
y(1592,8643,5,b) 0
y(6205,8643,0,a) 0
y(6205,8643,0,b) 0
y(6205,8643,1,a) 0
y(6205,8643,1,b) 0
y(6205,8643,2,a) 0
y(6205,8643,2,b) 0
y(6205,8643,3,a) 0
y(6205,8643,3,b) 0
y(6205,8643,4,a) 0
y(6205,8643,4,b) 0
y(6205,8643,5,a) 0
y(6205,8643,5,b) 0
y(6686,8643,0,a) 0
y(6686,8643,0,b) 0
y(6686,8643,1,a) 0
y(6686,8643,1,b) 0
y(6686,8643,2,a) 0
y(6686,8643,2,b) 0
y(6686,8643,3,a) 0
y(6686,8643,3,b) 0
y(6686,8643,4,a) 0
y(6686,8643,4,b) 0
y(6686,8643,5,a) 0
y(6686,8643,5,b) 0
y(8236,8643,0,a) 0
y(8236,8643,0,b) 0
y(8236,8643,1,a) 0
y(8236,8643,1,b) 0
y(8236,8643,2,a) 0
y(8236,8643,2,b) 0
y(8236,8643,3,a) 0
y(8236,8643,3,b) 0
y(8236,8643,4,a) 0
y(8236,8643,4,b) 0
y(8236,8643,5,a) 0
y(8236,8643,5,b) 0
y(8169,8643,0,a) 0
y(8169,8643,0,b) 0
y(8169,8643,1,a) 0
y(8169,8643,1,b) 0
y(8169,8643,2,a) 0
y(8169,8643,2,b) 0
y(8169,8643,3,a) 0
y(8169,8643,3,b) 0
y(8169,8643,4,a) 0
y(8169,8643,4,b) 0
y(8169,8643,5,a) 0
y(8169,8643,5,b) 0
y(10635,8643,0,a) 0
y(10635,8643,0,b) 0
y(10635,8643,1,a) 0
y(10635,8643,1,b) 0
y(10635,8643,2,a) 0
y(10635,8643,2,b) 0
y(10635,8643,3,a) 0
y(10635,8643,3,b) 0
y(10635,8643,4,a) 0
y(10635,8643,4,b) 0
y(10635,8643,5,a) 0
y(10635,8643,5,b) 0
y(14140,8643,0,a) 0
y(14140,8643,0,b) 0
y(14140,8643,1,a) 0
y(14140,8643,1,b) 0
y(14140,8643,2,a) 0
y(14140,8643,2,b) 0
y(14140,8643,3,a) 0
y(14140,8643,3,b) 0
y(14140,8643,4,a) 0
y(14140,8643,4,b) 0
y(14140,8643,5,a) 0
y(14140,8643,5,b) 0
y(11087,8643,0,a) 0
y(11087,8643,0,b) 0
y(11087,8643,1,a) 0
y(11087,8643,1,b) 0
y(11087,8643,2,a) 0
y(11087,8643,2,b) 0
y(11087,8643,3,a) 0
y(11087,8643,3,b) 0
y(11087,8643,4,a) 0
y(11087,8643,4,b) 0
y(11087,8643,5,a) 0
y(11087,8643,5,b) 0
y(15728,8643,0,a) 0
y(15728,8643,0,b) 0
y(15728,8643,1,a) 1
y(15728,8643,1,b) 0
y(15728,8643,2,a) 0
y(15728,8643,2,b) 0
y(15728,8643,3,a) 0
y(15728,8643,3,b) 0
y(15728,8643,4,a) 0
y(15728,8643,4,b) 0
y(15728,8643,5,a) 0
y(15728,8643,5,b) 0
y(10635,10635,0,a) 0
y(10635,10635,0,b) 0
y(10635,10635,1,a) 0
y(10635,10635,1,b) 0
y(10635,10635,2,a) 0
y(10635,10635,2,b) 0
y(10635,10635,3,a) 0
y(10635,10635,3,b) 0
y(10635,10635,4,a) 0
y(10635,10635,4,b) 0
y(10635,10635,5,a) 0
y(10635,10635,5,b) 0
y(1813,10635,0,a) 0
y(1813,10635,0,b) 0
y(1813,10635,1,a) 0
y(1813,10635,1,b) 0
y(1813,10635,2,a) 0
y(1813,10635,2,b) 0
y(1813,10635,3,a) 0
y(1813,10635,3,b) 0
y(1813,10635,4,a) 0
y(1813,10635,4,b) 0
y(1813,10635,5,a) 0
y(1813,10635,5,b) 0
y(1592,10635,0,a) 0
y(1592,10635,0,b) 0
y(1592,10635,1,a) 0
y(1592,10635,1,b) 0
y(1592,10635,2,a) 0
y(1592,10635,2,b) 0
y(1592,10635,3,a) 0
y(1592,10635,3,b) 0
y(1592,10635,4,a) 0
y(1592,10635,4,b) 0
y(1592,10635,5,a) 0
y(1592,10635,5,b) 0
y(6205,10635,0,a) 0
y(6205,10635,0,b) 0
y(6205,10635,1,a) 0
y(6205,10635,1,b) 0
y(6205,10635,2,a) 0
y(6205,10635,2,b) 0
y(6205,10635,3,a) 0
y(6205,10635,3,b) 0
y(6205,10635,4,a) 0
y(6205,10635,4,b) 0
y(6205,10635,5,a) 0
y(6205,10635,5,b) 0
y(6686,10635,0,a) 0
y(6686,10635,0,b) 0
y(6686,10635,1,a) 0
y(6686,10635,1,b) 0
y(6686,10635,2,a) 0
y(6686,10635,2,b) 0
y(6686,10635,3,a) 0
y(6686,10635,3,b) 0
y(6686,10635,4,a) 0
y(6686,10635,4,b) 0
y(6686,10635,5,a) 0
y(6686,10635,5,b) 0
y(8236,10635,0,a) 0
y(8236,10635,0,b) 0
y(8236,10635,1,a) 0
y(8236,10635,1,b) 0
y(8236,10635,2,a) 0
y(8236,10635,2,b) 0
y(8236,10635,3,a) 0
y(8236,10635,3,b) 0
y(8236,10635,4,a) 0
y(8236,10635,4,b) 0
y(8236,10635,5,a) 0
y(8236,10635,5,b) 0
y(8169,10635,0,a) 0
y(8169,10635,0,b) 0
y(8169,10635,1,a) 0
y(8169,10635,1,b) 0
y(8169,10635,2,a) 0
y(8169,10635,2,b) 0
y(8169,10635,3,a) 0
y(8169,10635,3,b) 0
y(8169,10635,4,a) 0
y(8169,10635,4,b) 0
y(8169,10635,5,a) 0
y(8169,10635,5,b) 0
y(8643,10635,0,a) 0
y(8643,10635,0,b) 0
y(8643,10635,1,a) 0
y(8643,10635,1,b) 0
y(8643,10635,2,a) 0
y(8643,10635,2,b) 0
y(8643,10635,3,a) 0
y(8643,10635,3,b) 0
y(8643,10635,4,a) 0
y(8643,10635,4,b) 0
y(8643,10635,5,a) 0
y(8643,10635,5,b) 0
y(14140,10635,0,a) 0
y(14140,10635,0,b) 0
y(14140,10635,1,a) 0
y(14140,10635,1,b) 0
y(14140,10635,2,a) 0
y(14140,10635,2,b) 0
y(14140,10635,3,a) 0
y(14140,10635,3,b) 0
y(14140,10635,4,a) 0
y(14140,10635,4,b) 0
y(14140,10635,5,a) 0
y(14140,10635,5,b) 0
y(11087,10635,0,a) 0
y(11087,10635,0,b) 0
y(11087,10635,1,a) 0
y(11087,10635,1,b) 0
y(11087,10635,2,a) 0
y(11087,10635,2,b) 0
y(11087,10635,3,a) 0
y(11087,10635,3,b) 0
y(11087,10635,4,a) 0
y(11087,10635,4,b) 1
y(11087,10635,5,a) 0
y(11087,10635,5,b) 0
y(15728,10635,0,a) 0
y(15728,10635,0,b) 0
y(15728,10635,1,a) 0
y(15728,10635,1,b) 0
y(15728,10635,2,a) 0
y(15728,10635,2,b) 0
y(15728,10635,3,a) 0
y(15728,10635,3,b) 0
y(15728,10635,4,a) 0
y(15728,10635,4,b) 0
y(15728,10635,5,a) 0
y(15728,10635,5,b) 0
y(14140,14140,0,a) 0
y(14140,14140,0,b) 0
y(14140,14140,1,a) 0
y(14140,14140,1,b) 0
y(14140,14140,2,a) 0
y(14140,14140,2,b) 0
y(14140,14140,3,a) 0
y(14140,14140,3,b) 0
y(14140,14140,4,a) 0
y(14140,14140,4,b) 0
y(14140,14140,5,a) 0
y(14140,14140,5,b) 0
y(1813,14140,0,a) 0
y(1813,14140,0,b) 0
y(1813,14140,1,a) 0
y(1813,14140,1,b) 0
y(1813,14140,2,a) 0
y(1813,14140,2,b) 0
y(1813,14140,3,a) 0
y(1813,14140,3,b) 0
y(1813,14140,4,a) 0
y(1813,14140,4,b) 0
y(1813,14140,5,a) 0
y(1813,14140,5,b) 0
y(1592,14140,0,a) 0
y(1592,14140,0,b) 0
y(1592,14140,1,a) 0
y(1592,14140,1,b) 0
y(1592,14140,2,a) 0
y(1592,14140,2,b) 0
y(1592,14140,3,a) 0
y(1592,14140,3,b) 0
y(1592,14140,4,a) 0
y(1592,14140,4,b) 0
y(1592,14140,5,a) 0
y(1592,14140,5,b) 0
y(6205,14140,0,a) 0
y(6205,14140,0,b) 0
y(6205,14140,1,a) 0
y(6205,14140,1,b) 1
y(6205,14140,2,a) 0
y(6205,14140,2,b) 0
y(6205,14140,3,a) 0
y(6205,14140,3,b) 0
y(6205,14140,4,a) 0
y(6205,14140,4,b) 0
y(6205,14140,5,a) 0
y(6205,14140,5,b) 0
y(6686,14140,0,a) 0
y(6686,14140,0,b) 0
y(6686,14140,1,a) 0
y(6686,14140,1,b) 0
y(6686,14140,2,a) 0
y(6686,14140,2,b) 0
y(6686,14140,3,a) 0
y(6686,14140,3,b) 0
y(6686,14140,4,a) 0
y(6686,14140,4,b) 0
y(6686,14140,5,a) 0
y(6686,14140,5,b) 0
y(8236,14140,0,a) 0
y(8236,14140,0,b) 0
y(8236,14140,1,a) 0
y(8236,14140,1,b) 0
y(8236,14140,2,a) 0
y(8236,14140,2,b) 0
y(8236,14140,3,a) 0
y(8236,14140,3,b) 0
y(8236,14140,4,a) 0
y(8236,14140,4,b) 0
y(8236,14140,5,a) 0
y(8236,14140,5,b) 0
y(8169,14140,0,a) 0
y(8169,14140,0,b) 0
y(8169,14140,1,a) 0
y(8169,14140,1,b) 0
y(8169,14140,2,a) 0
y(8169,14140,2,b) 0
y(8169,14140,3,a) 0
y(8169,14140,3,b) 0
y(8169,14140,4,a) 0
y(8169,14140,4,b) 0
y(8169,14140,5,a) 0
y(8169,14140,5,b) 0
y(8643,14140,0,a) 0
y(8643,14140,0,b) 0
y(8643,14140,1,a) 0
y(8643,14140,1,b) 0
y(8643,14140,2,a) 0
y(8643,14140,2,b) 0
y(8643,14140,3,a) 0
y(8643,14140,3,b) 0
y(8643,14140,4,a) 0
y(8643,14140,4,b) 0
y(8643,14140,5,a) 0
y(8643,14140,5,b) 0
y(10635,14140,0,a) 0
y(10635,14140,0,b) 0
y(10635,14140,1,a) 0
y(10635,14140,1,b) 0
y(10635,14140,2,a) 0
y(10635,14140,2,b) 0
y(10635,14140,3,a) 0
y(10635,14140,3,b) 0
y(10635,14140,4,a) 0
y(10635,14140,4,b) 0
y(10635,14140,5,a) 0
y(10635,14140,5,b) 0
y(11087,14140,0,a) 0
y(11087,14140,0,b) 0
y(11087,14140,1,a) 0
y(11087,14140,1,b) 0
y(11087,14140,2,a) 0
y(11087,14140,2,b) 0
y(11087,14140,3,a) 0
y(11087,14140,3,b) 0
y(11087,14140,4,a) 0
y(11087,14140,4,b) 0
y(11087,14140,5,a) 0
y(11087,14140,5,b) 0
y(15728,14140,0,a) 0
y(15728,14140,0,b) 0
y(15728,14140,1,a) 0
y(15728,14140,1,b) 0
y(15728,14140,2,a) 0
y(15728,14140,2,b) 0
y(15728,14140,3,a) 0
y(15728,14140,3,b) 0
y(15728,14140,4,a) 0
y(15728,14140,4,b) 0
y(15728,14140,5,a) 0
y(15728,14140,5,b) 0
y(11087,11087,0,a) 0
y(11087,11087,0,b) 0
y(11087,11087,1,a) 0
y(11087,11087,1,b) 0
y(11087,11087,2,a) 0
y(11087,11087,2,b) 0
y(11087,11087,3,a) 0
y(11087,11087,3,b) 0
y(11087,11087,4,a) 0
y(11087,11087,4,b) 0
y(11087,11087,5,a) 0
y(11087,11087,5,b) 0
y(1813,11087,0,a) 0
y(1813,11087,0,b) 0
y(1813,11087,1,a) 0
y(1813,11087,1,b) 0
y(1813,11087,2,a) 0
y(1813,11087,2,b) 0
y(1813,11087,3,a) 0
y(1813,11087,3,b) 1
y(1813,11087,4,a) 0
y(1813,11087,4,b) 0
y(1813,11087,5,a) 0
y(1813,11087,5,b) 0
y(1592,11087,0,a) 0
y(1592,11087,0,b) 0
y(1592,11087,1,a) 0
y(1592,11087,1,b) 0
y(1592,11087,2,a) 0
y(1592,11087,2,b) 0
y(1592,11087,3,a) 0
y(1592,11087,3,b) 0
y(1592,11087,4,a) 0
y(1592,11087,4,b) 0
y(1592,11087,5,a) 0
y(1592,11087,5,b) 0
y(6205,11087,0,a) 0
y(6205,11087,0,b) 0
y(6205,11087,1,a) 0
y(6205,11087,1,b) 0
y(6205,11087,2,a) 0
y(6205,11087,2,b) 0
y(6205,11087,3,a) 0
y(6205,11087,3,b) 0
y(6205,11087,4,a) 0
y(6205,11087,4,b) 0
y(6205,11087,5,a) 0
y(6205,11087,5,b) 0
y(6686,11087,0,a) 0
y(6686,11087,0,b) 0
y(6686,11087,1,a) 0
y(6686,11087,1,b) 0
y(6686,11087,2,a) 0
y(6686,11087,2,b) 0
y(6686,11087,3,a) 0
y(6686,11087,3,b) 0
y(6686,11087,4,a) 0
y(6686,11087,4,b) 0
y(6686,11087,5,a) 0
y(6686,11087,5,b) 0
y(8236,11087,0,a) 0
y(8236,11087,0,b) 0
y(8236,11087,1,a) 0
y(8236,11087,1,b) 0
y(8236,11087,2,a) 0
y(8236,11087,2,b) 0
y(8236,11087,3,a) 0
y(8236,11087,3,b) 0
y(8236,11087,4,a) 0
y(8236,11087,4,b) 0
y(8236,11087,5,a) 0
y(8236,11087,5,b) 0
y(8169,11087,0,a) 0
y(8169,11087,0,b) 0
y(8169,11087,1,a) 0
y(8169,11087,1,b) 0
y(8169,11087,2,a) 0
y(8169,11087,2,b) 0
y(8169,11087,3,a) 0
y(8169,11087,3,b) 0
y(8169,11087,4,a) 0
y(8169,11087,4,b) 0
y(8169,11087,5,a) 0
y(8169,11087,5,b) 0
y(8643,11087,0,a) 0
y(8643,11087,0,b) 0
y(8643,11087,1,a) 0
y(8643,11087,1,b) 0
y(8643,11087,2,a) 0
y(8643,11087,2,b) 0
y(8643,11087,3,a) 0
y(8643,11087,3,b) 0
y(8643,11087,4,a) 0
y(8643,11087,4,b) 0
y(8643,11087,5,a) 0
y(8643,11087,5,b) 0
y(10635,11087,0,a) 0
y(10635,11087,0,b) 0
y(10635,11087,1,a) 0
y(10635,11087,1,b) 0
y(10635,11087,2,a) 0
y(10635,11087,2,b) 0
y(10635,11087,3,a) 0
y(10635,11087,3,b) 0
y(10635,11087,4,a) 0
y(10635,11087,4,b) 0
y(10635,11087,5,a) 0
y(10635,11087,5,b) 0
y(14140,11087,0,a) 0
y(14140,11087,0,b) 0
y(14140,11087,1,a) 0
y(14140,11087,1,b) 0
y(14140,11087,2,a) 0
y(14140,11087,2,b) 0
y(14140,11087,3,a) 0
y(14140,11087,3,b) 0
y(14140,11087,4,a) 0
y(14140,11087,4,b) 0
y(14140,11087,5,a) 0
y(14140,11087,5,b) 0
y(15728,11087,0,a) 0
y(15728,11087,0,b) 0
y(15728,11087,1,a) 0
y(15728,11087,1,b) 0
y(15728,11087,2,a) 0
y(15728,11087,2,b) 0
y(15728,11087,3,a) 0
y(15728,11087,3,b) 0
y(15728,11087,4,a) 0
y(15728,11087,4,b) 0
y(15728,11087,5,a) 0
y(15728,11087,5,b) 0
y(15728,15728,0,a) 1
y(15728,15728,0,b) 0
y(15728,15728,1,a) 0
y(15728,15728,1,b) 0
y(15728,15728,2,a) 0
y(15728,15728,2,b) 0
y(15728,15728,3,a) 0
y(15728,15728,3,b) 0
y(15728,15728,4,a) 0
y(15728,15728,4,b) 0
y(15728,15728,5,a) 0
y(15728,15728,5,b) 0
y(1813,15728,0,a) 0
y(1813,15728,0,b) 0
y(1813,15728,1,a) 0
y(1813,15728,1,b) 0
y(1813,15728,2,a) 0
y(1813,15728,2,b) 0
y(1813,15728,3,a) 0
y(1813,15728,3,b) 0
y(1813,15728,4,a) 0
y(1813,15728,4,b) 0
y(1813,15728,5,a) 0
y(1813,15728,5,b) 0
y(1592,15728,0,a) 0
y(1592,15728,0,b) 0
y(1592,15728,1,a) 0
y(1592,15728,1,b) 0
y(1592,15728,2,a) 0
y(1592,15728,2,b) 0
y(1592,15728,3,a) 0
y(1592,15728,3,b) 0
y(1592,15728,4,a) 0
y(1592,15728,4,b) 0
y(1592,15728,5,a) 0
y(1592,15728,5,b) 0
y(6205,15728,0,a) 0
y(6205,15728,0,b) 0
y(6205,15728,1,a) 0
y(6205,15728,1,b) 0
y(6205,15728,2,a) 0
y(6205,15728,2,b) 0
y(6205,15728,3,a) 0
y(6205,15728,3,b) 0
y(6205,15728,4,a) 0
y(6205,15728,4,b) 0
y(6205,15728,5,a) 0
y(6205,15728,5,b) 0
y(6686,15728,0,a) 0
y(6686,15728,0,b) 0
y(6686,15728,1,a) 0
y(6686,15728,1,b) 0
y(6686,15728,2,a) 0
y(6686,15728,2,b) 0
y(6686,15728,3,a) 0
y(6686,15728,3,b) 0
y(6686,15728,4,a) 0
y(6686,15728,4,b) 0
y(6686,15728,5,a) 0
y(6686,15728,5,b) 0
y(8236,15728,0,a) 0
y(8236,15728,0,b) 0
y(8236,15728,1,a) 0
y(8236,15728,1,b) 0
y(8236,15728,2,a) 0
y(8236,15728,2,b) 0
y(8236,15728,3,a) 0
y(8236,15728,3,b) 0
y(8236,15728,4,a) 0
y(8236,15728,4,b) 0
y(8236,15728,5,a) 0
y(8236,15728,5,b) 0
y(8169,15728,0,a) 0
y(8169,15728,0,b) 0
y(8169,15728,1,a) 0
y(8169,15728,1,b) 0
y(8169,15728,2,a) 0
y(8169,15728,2,b) 0
y(8169,15728,3,a) 0
y(8169,15728,3,b) 0
y(8169,15728,4,a) 0
y(8169,15728,4,b) 0
y(8169,15728,5,a) 0
y(8169,15728,5,b) 0
y(8643,15728,0,a) 0
y(8643,15728,0,b) 0
y(8643,15728,1,a) 0
y(8643,15728,1,b) 0
y(8643,15728,2,a) 0
y(8643,15728,2,b) 0
y(8643,15728,3,a) 0
y(8643,15728,3,b) 0
y(8643,15728,4,a) 0
y(8643,15728,4,b) 0
y(8643,15728,5,a) 0
y(8643,15728,5,b) 0
y(10635,15728,0,a) 0
y(10635,15728,0,b) 0
y(10635,15728,1,a) 0
y(10635,15728,1,b) 0
y(10635,15728,2,a) 0
y(10635,15728,2,b) 0
y(10635,15728,3,a) 0
y(10635,15728,3,b) 0
y(10635,15728,4,a) 0
y(10635,15728,4,b) 0
y(10635,15728,5,a) 0
y(10635,15728,5,b) 0
y(14140,15728,0,a) 0
y(14140,15728,0,b) 0
y(14140,15728,1,a) 0
y(14140,15728,1,b) 0
y(14140,15728,2,a) 0
y(14140,15728,2,b) 0
y(14140,15728,3,a) 0
y(14140,15728,3,b) 0
y(14140,15728,4,a) 0
y(14140,15728,4,b) 0
y(14140,15728,5,a) 0
y(14140,15728,5,b) 0
y(11087,15728,0,a) 0
y(11087,15728,0,b) 0
y(11087,15728,1,a) 0
y(11087,15728,1,b) 0
y(11087,15728,2,a) 0
y(11087,15728,2,b) 0
y(11087,15728,3,a) 0
y(11087,15728,3,b) 0
y(11087,15728,4,a) 0
y(11087,15728,4,b) 0
y(11087,15728,5,a) 0
y(11087,15728,5,b) 0
t(1,a) 3
t(1,b) 1.0666666666666670e+01
t(2,a) 1.2060606060606059e+01
t(2,b) 1.8939393939393938e+01
t(3,a) 1.7090909090909086e+01
t(3,b) 2.9333333333333329e+01
t(4,a) 2.2030303030303035e+01
t(4,b) 4.2606060606060630e+01
t(5,a) 2.5969696969696969e+01
t(5,b) 5.1121212121212153e+01
t(6,a) 3.2666666666666671e+01
t(6,b) 5.4121212121212153e+01
t_(1,a) 39
t_(1,b) 11
t_(2,a) 45
t_(2,b) 44
t_(3,a) 49
t_(3,b) 35
t_(4,a) 2.3999999999999954e+01
t_(4,b) 50
t_(5,a) 4.8999999999999993e+01
t_(5,b) 53
t_(6,a) 34
t_(6,b) 0
